c CNF generator v0.9
p cnf 10 42
5 8 -4 0
-4 -6 2 0
4 -5 3 0
-3 -2 2 0
-4 9 5 0
-2 -5 8 0
-6 -8 -4 0
-2 -6 -6 0
2 1 2 0
3 7 3 0
-9 9 5 0
7 6 2 0
4 -6 -7 0
5 1 -2 0
-8 -10 -6 0
-2 -8 -10 0
10 -1 -1 0
-5 -10 -8 0
3 6 -8 0
9 -6 6 0
-3 4 9 0
5 7 5 0
-7 -5 7 0
6 8 -7 0
-4 -6 -1 0
-9 8 -10 0
2 6 2 0
4 -4 -7 0
10 7 -7 0
-4 8 3 0
6 2 7 0
-1 -2 10 0
6 -5 -8 0
3 -3 7 0
-2 9 -2 0
-5 9 4 0
10 2 -4 0
-8 -1 -6 0
-8 9 -6 0
-5 7 4 0
-10 1 -8 0
1 2 6 0
